problems/csplib-prob015/SchursLemma-models/noch/O2/lingeling/model_1_4-7-18-solution000001.solution
language Essence 1.3

letting boxes be partition({1, 2, 6, 11, 14}, {3, 4, 8, 9, 10}, {5, 12, 15}, {7, 13}, {16}, {17}, {18})
